* (set-option :incremental false)
* (set-info :status sat)
* (set-logic QF_BV)
* (declare-fun v0 () (_ BitVec 4))
* (check-sat-assuming ( (= ((_ extract 0 0) (bvadd (bvnot v0) (_ bv1 4))) (_ bv0 1)) ))
* sat
* #variable= 19 #constraint= 12
+1 x6 +2 x7 +4 x8 +8 x9 +1 x14 +2 x15 +4 x16 +8 x17 -1 x2 -2 x3 -4 x4 -8 x5 -16 x18 = 0;
+1 x15 = 0;
+1 x10 +1 x6 = 1;
+1 x11 +1 x7 = 1;
+1 x19 = 0;
+1 x14 = 1;
+1 x12 +1 x8 = 1;
+1 x16 = 0;
+1 x13 +1 x9 = 1;
+1 x2 -1 x1 = 0;
+1 x17 = 0;
+1 x1 -1 x19 = 0;
